p tw 130 300
0 1
0 2
0 3
0 4
0 29
0 30
0 53
0 54
0 65
0 66
0 72
0 73
0 49
0 74
0 42
0 92
0 5
0 113
0 106
0 127
0 87
0 129
1 2
1 14
1 15
2 36
2 99
3 4
3 36
3 123
5 6
5 7
5 113
6 7
7 22
7 23
7 83
7 84
7 98
7 111
7 92
7 125
7 73
7 101
7 81
7 122
8 9
8 10
9 10
9 27
9 66
10 24
10 25
10 33
10 34
10 45
10 46
10 61
10 62
10 48
10 67
10 69
10 70
10 50
10 60
10 90
10 91
10 82
10 120
10 96
10 121
11 12
11 13
11 55
11 56
11 59
11 60
11 52
11 79
11 14
11 82
11 16
11 57
11 31
11 34
11 44
11 87
11 86
11 93
11 39
11 115
11 65
11 116
11 67
11 124
11 75
11 83
12 13
12 36
12 71
14 15
14 82
15 47
15 48
15 40
15 53
15 35
15 68
15 75
15 76
15 77
15 78
15 80
15 81
15 51
15 98
15 105
15 106
15 64
15 91
15 97
15 102
15 32
15 103
15 109
15 129
16 17
16 18
16 57
17 18
18 41
18 42
18 30
18 47
18 55
18 97
18 100
18 101
18 109
18 110
18 37
18 112
18 116
18 117
18 105
18 118
18 26
18 89
19 20
19 21
20 21
20 38
20 76
21 88
21 89
21 94
21 95
21 68
21 96
21 103
21 104
21 107
21 108
21 79
21 128
22 23
22 36
22 88
24 25
25 36
25 102
26 27
26 28
26 89
27 28
27 31
27 32
27 43
27 44
27 51
27 52
27 66
27 71
27 113
27 118
27 119
27 122
27 123
29 30
30 47
31 32
31 34
32 103
33 34
35 36
35 37
35 68
36 37
36 57
36 58
36 63
36 64
36 71
36 74
36 85
36 99
36 88
36 102
36 114
36 115
36 45
36 93
36 119
36 126
36 100
36 108
36 123
37 112
38 39
38 40
38 49
38 50
38 58
38 62
38 77
38 86
38 90
38 95
38 76
38 41
38 69
39 40
39 115
40 53
41 42
41 69
42 92
43 44
44 87
45 46
45 93
47 48
48 67
49 50
49 74
50 60
51 52
51 98
52 79
53 54
55 56
55 97
57 58
58 62
59 60
61 62
63 64
64 91
65 66
65 116
67 124
68 96
69 70
71 113
72 73
73 101
74 85
75 76
75 83
77 78
77 86
79 128
80 81
81 122
82 120
83 84
86 93
87 129
88 89
90 91
90 95
92 125
94 95
96 121
97 102
98 111
100 101
100 108
103 104
105 106
105 118
106 127
107 108
109 110
109 129
114 115
116 117
118 119
119 126
122 123
